unsat
(define-fun move ((currPoint Int) (o0 Int) (o1 Int)) Int 1)
0.42user 0.01system 0:00.44elapsed 99%CPU (0avgtext+0avgdata 35680maxresident)k
24inputs+8outputs (0major+3551minor)pagefaults 0swaps
